0000000000000000
0000000000000000
0000000000000000
0000000000000000
0000011111100000
0000011111110000
0000000000110000
0000000000110000
0000010000110000
0000010000110000
0000010000110000
0000010000110000
0000010000110000
0000000000000000
0000000000000000
0000000000000000
